
Log for 'nrel118_aggr.lp' Clone_1 (V12.6.1.0) Mon Jul 17 16:38:44 2017

Tried aggregator 0 times.
No LP presolve or aggregator reductions.
Presolve time = 0.00 sec. (1.11 ticks)
Parallel mode: using up to 6 threads for barrier.
Number of nonzeros in lower triangle of A*A' = 15045
Using Approximate Minimum Degree ordering
Total time for automatic ordering = 0.00 sec. (1.35 ticks)
Summary statistics for Cholesky factor:
  Threads                   = 6
  Rows in Factor            = 3564
  Integer space required    = 8848
  Total non-zeros in factor = 56148
  Total FP ops to factor    = 1881028
 Itn      Primal Obj        Dual Obj  Prim Inf Upper Inf  Dual Inf Inf Ratio
   0   6.3339519e+05  -2.9830898e+06  1.87e+06  2.62e+06  5.68e+03  1.00e+00
   1   1.5886611e+05  -1.0120538e+06  3.04e+05  4.26e+05  2.01e+03  2.09e-02
   2   1.2411500e+05  -4.1315774e+05  1.43e+05  2.00e+05  9.20e+02  2.22e-02
   3   1.0744672e+05  -6.2508574e+04  6.45e+04  9.03e+04  2.84e+02  3.72e-02
   4   1.0179760e+05   4.6951258e+04  3.66e+04  5.12e+04  8.58e+01  8.01e-02
   5   9.8760864e+04   7.4411952e+04  2.01e+04  2.82e+04  3.68e+01  1.49e-01
   6   9.8425120e+04   8.6847299e+04  1.53e+04  2.14e+04  1.69e+01  1.79e-01
   7   9.9409696e+04   8.9275746e+04  1.43e+04  2.00e+04  1.54e+01  7.78e-02
   8   9.8137249e+04   9.1358382e+04  9.88e+03  1.38e+04  1.03e+01  1.16e-02
   9   9.8551587e+04   1.4252368e+05  9.80e+03  1.37e+04  1.00e+01  5.67e-05
  10   9.8830316e+04   1.6850604e+08  9.53e+03  1.33e+04  1.15e+01  9.83e-09
  11   9.9041919e+04   1.0083995e+12  9.43e+03  1.32e+04  2.84e+04  9.92e-13
  12   9.9064904e+04   1.0121180e+16  9.46e+03  1.32e+04  2.52e+08  9.88e-17
  13   9.9067776e+04   1.0117376e+20  9.45e+03  1.32e+04  3.60e+12  9.88e-21
 Barrier limit on dual objective exceeded.
 Infeasible barrier solution (dependent on objective limit).
Barrier time = 0.07 sec. (22.92 ticks)

Total time on 6 threads = 0.08 sec. (24.17 ticks)

Dual simplex solved model.


Log for 'nrel118_aggr.lp' Clone_1 (V12.6.1.0) Mon Jul 17 16:40:05 2017

Tried aggregator 0 times.
No LP presolve or aggregator reductions.
Presolve time = 0.00 sec. (1.11 ticks)
Parallel mode: using up to 6 threads for barrier.
Number of nonzeros in lower triangle of A*A' = 15045
Using Approximate Minimum Degree ordering
Total time for automatic ordering = 0.00 sec. (1.35 ticks)
Summary statistics for Cholesky factor:
  Threads                   = 6
  Rows in Factor            = 3564
  Integer space required    = 8848
  Total non-zeros in factor = 56148
  Total FP ops to factor    = 1881028
 Itn      Primal Obj        Dual Obj  Prim Inf Upper Inf  Dual Inf Inf Ratio
   0   9.4176475e+05  -5.8438898e+06  2.85e+06  3.63e+06  5.68e+03  1.00e+00
   1   2.7892309e+05  -2.5191244e+06  6.70e+05  8.54e+05  2.49e+03  1.09e-02
   2   1.3266329e+05  -4.8820932e+05  1.81e+05  2.30e+05  5.43e+02  2.66e-02
   3   1.0673510e+05  -1.1088234e+05  7.00e+04  8.92e+04  1.89e+02  4.13e-02
   4   9.2534939e+04   5.2438271e+04  1.37e+04  1.75e+04  3.46e+01  1.64e-01
   5   9.1001675e+04   7.4056686e+04  6.80e+03  8.68e+03  1.44e+01  3.60e-01
   6   9.0959375e+04   8.4901763e+04  3.05e+03  3.89e+03  5.15e+00  9.09e-01
   7   9.1034314e+04   8.8588873e+04  2.79e+03  3.56e+03  2.41e+00  1.72e+00
   8   9.1540891e+04   9.0907432e+04  7.13e+02  9.09e+02  6.22e-01  8.01e+00
   9   9.1665547e+04   9.1378201e+04  2.88e+02  3.67e+02  2.74e-01  1.75e+01
  10   9.1721263e+04   9.1605498e+04  1.35e+02  1.72e+02  1.15e-01  4.09e+01
  11   9.1750133e+04   9.1741381e+04  5.87e+01  7.44e+01  2.13e-02  2.08e+02
  12   9.1766857e+04   9.1764343e+04  1.50e+01  1.87e+01  5.57e-03  6.98e+02
  13   9.1773786e+04   9.1773519e+04  5.70e-01  3.56e-01  2.33e-04  1.45e+04
  14   9.1773981e+04   9.1773980e+04  2.91e-01  5.00e-05  1.03e-07  3.33e+07
  15   9.1773981e+04   9.1773981e+04  2.91e-01  6.55e-09  1.54e-11  2.52e+11
Barrier time = 0.09 sec. (25.84 ticks)
Parallel mode: deterministic, using up to 6 threads for concurrent optimization.

Dual crossover.
  Dual:  Fixing 588 variables.
      587 DMoves:  Infeasibility  2.90037105e-10  Objective  9.17739807e+04

Log for 'nrel118_aggr.lp' Clone_1 (V12.6.1.0) Mon Jul 17 16:40:06 2017


Primal crossover.
  Primal:  Fixing 1836 variables.
     1835 PMoves:  Infeasibility  1.13203709e+00  Objective  9.17739807e+04
      380 DMoves:  Infeasibility  1.87346361e-10  Objective  9.17739807e+04
        0 DMoves:  Infeasibility  0.00000000e+00  Objective  9.17739807e+04
  Dual:  Pushed 0, exchanged 588.
     1558 PMoves:  Infeasibility  1.13203709e+00  Objective  9.17739807e+04
      628 PMoves:  Infeasibility  1.09298370e+00  Objective  9.17739807e+04
  Primal:  Fixing 1211 variables.
     1210 PMoves:  Infeasibility  1.13203709e+00  Objective  9.17739807e+04
      373 PMoves:  Infeasibility  9.08615070e-01  Objective  9.17739807e+04
      147 PMoves:  Infeasibility  6.20044022e-01  Objective  9.17739807e+04
      882 PMoves:  Infeasibility  8.82436135e-01  Objective  9.17739807e+04
Total crossover time = 0.02 sec. (108.72 ticks)

Total time on 6 threads = 0.11 sec. (135.80 ticks)

Dual simplex solved model.

